
(set-logic ALL) 

(declare-datatype MyList ((Nil) (Cons (head Real) (tail MyList)) )) 
(declare-fun l0 () MyList) 
(declare-fun l1 () MyList) 
(declare-fun l2 () MyList) 
(declare-fun l3 () MyList) 
(declare-fun i0 () Real) 
(declare-fun i1 () Real) 
(assert (not (is-Nil Nil)) )
(assert (= l1 l1) )
(assert (= l1 l3) )
(assert (= l2 Nil) )
(assert (not (= l2 l2)) )
(assert (not (= l2 Nil)) )
(assert (is-Cons Nil) )
(assert (and (is-Cons l3) (is-Cons Nil) (is-Cons Nil)) )
(check-sat)
